n_res = 4;
rcap = [28, 33, 99, 88];
rtype = [1, 1, 2, 2];
n_tasks = 16;
modes = [ {1, 2, 3}, {4, 5, 6}, {7, 8, 9}, {10, 11, 12}, {13, 14, 15}, {16, 17, 18}, {19, 20, 21}, {22, 23, 24}, {25, 26, 27}, {28, 29, 30}, {31, 32, 33}, {34, 35, 36}, {37, 38, 39}, {40, 41, 42}, {43, 44, 45}, {46, 47, 48} ];
succ = [ {5, 9, 10}, {4, 8, 12}, {7, 11, 16}, {15}, {6}, {12}, {13}, {16}, {11}, {15}, {14, 15}, {14, 16}, {14}, {}, {}, {} ];
n_opt = 48;
dur = [4, 6, 7, 1, 3, 8, 8, 10, 10, 7, 9, 10, 4, 6, 9, 2, 3, 8, 1, 4, 7, 4, 8, 10, 1, 8, 9, 5, 8, 9, 7, 8, 9, 3, 5, 7, 2, 9, 10, 1, 3, 7, 1, 5, 8, 7, 8, 9];
rreq = [|  0,  4,  0, 10,  0,  9,  9,  0,  6,  5,  0,  5,  0,  4,  0,  5,  2,  0,  0,  0,  3,  9,  9,  0,  8,  8,  0,  9,  0,  7, 10,  0,  2,  5,  0,  5,  0,  0,  9,  8,  8,  5,  4,  3,  3,  8,  5,  0
        |  6,  0,  3,  0,  3,  0,  0,  2,  0,  0,  5,  0,  5,  0,  3,  0,  0,  8,  6,  5,  0,  0,  0,  5,  0,  0,  8,  0,  8,  0,  0,  2,  0,  0,  5,  0, 10,  4,  0,  0,  0,  0,  0,  0,  0,  0,  0,  3
        |  7,  6,  5,  4,  4,  3,  6,  2,  3,  6,  6,  5,  5,  5,  5,  3,  2,  2,  7,  7,  6,  3,  2,  1,  4,  4,  4,  7,  6,  4,  7,  4,  3,  7,  5,  3,  9,  6,  4, 10,  9,  8, 10,  9,  9,  4,  3,  2
        |  7,  7,  7,  2,  2,  1,  5,  2,  2,  5,  5,  5,  5,  4,  3,  5,  5,  4,  7,  4,  1,  2,  2,  2,  7,  5,  3,  7,  5,  3,  6,  6,  5,  7,  6,  4,  7,  5,  3,  1,  1,  1,  6,  6,  3,  9,  5,  2 |];
